HUN,8,6,813
1,4,3,9,4,18,5,2,0,25,2,10
0,24,5,14,1,11,4,26,2,27,3,27
1,2,5,2,2,11,0,11,3,20,4,13
5,29,3,3,4,16,1,21,2,28,0,23
2,16,4,22,5,9,0,25,1,23,3,28
1,4,3,12,4,2,5,12,0,28,2,11
3,1,5,29,2,11,0,9,4,29,1,18
4,24,2,3,5,27,1,3,3,7,0,1
